
Gurobi 11.0.1 (win64) logging started Wed Mar 13 20:00:59 2024

Set parameter LogFile to value "C:\Projetos\Job_Rotation_Algorithms\Outputs\GurobiLogs\gurobi_log-output-53_ros-c10-CostaMirallesModel-NoExtraConstraint-2.log"
Gurobi Optimizer version 11.0.1 build v11.0.1rc0 (win64 - Windows 10.0 (19045.2))

CPU model: 11th Gen Intel(R) Core(TM) i7-1165G7 @ 2.80GHz, instruction set [SSE2|AVX|AVX2|AVX512]
Thread count: 4 physical cores, 8 logical processors, using up to 1 threads


Gurobi 11.0.1 (win64) logging started Thu Mar 14 07:59:17 2024

Set parameter LogFile to value "C:\Projetos\Job_Rotation_Algorithms\Outputs\GurobiLogs\gurobi_log-output-53_ros-c10-CostaMirallesModel-NoExtraConstraint-2.log"
Gurobi Optimizer version 11.0.1 build v11.0.1rc0 (win64 - Windows 10.0 (19045.2))

CPU model: 11th Gen Intel(R) Core(TM) i7-1165G7 @ 2.80GHz, instruction set [SSE2|AVX|AVX2|AVX512]
Thread count: 4 physical cores, 8 logical processors, using up to 1 threads


Gurobi 11.0.1 (win64) logging started Fri Mar 15 00:36:43 2024

Set parameter LogFile to value "C:\Projetos\Job_Rotation_Algorithms\Outputs\GurobiLogs\gurobi_log-output-53_ros-c10-CostaMirallesModel-NoExtraConstraint-2.log"
Gurobi Optimizer version 11.0.1 build v11.0.1rc0 (win64 - Windows 10.0 (19045.2))

CPU model: 11th Gen Intel(R) Core(TM) i7-1165G7 @ 2.80GHz, instruction set [SSE2|AVX|AVX2|AVX512]
Thread count: 4 physical cores, 8 logical processors, using up to 1 threads


Gurobi 11.0.1 (win64) logging started Fri Mar 15 18:28:54 2024

Set parameter LogFile to value "C:\Projetos\Job_Rotation_Algorithms\Outputs\GurobiLogs\gurobi_log-output-53_ros-c10-CostaMirallesModel-NoExtraConstraint-2.log"
Gurobi Optimizer version 11.0.1 build v11.0.1rc0 (win64 - Windows 10.0 (19045.2))

CPU model: 11th Gen Intel(R) Core(TM) i7-1165G7 @ 2.80GHz, instruction set [SSE2|AVX|AVX2|AVX512]
Thread count: 4 physical cores, 8 logical processors, using up to 1 threads

WLS license 901039 - registered to Bitka Analytics
Optimize a model with 664 rows, 1543 columns and 15823 nonzeros
Model fingerprint: 0x2c695c2c
Variable types: 2 continuous, 1541 integer (1541 binary)
Coefficient statistics:
  Matrix range     [1e+00, 3e+01]
  Objective range  [1e+00, 1e+00]
  Bounds range     [1e+00, 2e+01]
  RHS range        [1e+00, 2e+01]
Presolve removed 183 rows and 797 columns
Presolve time: 0.06s
Presolved: 481 rows, 746 columns, 5477 nonzeros
Variable types: 0 continuous, 746 integer (745 binary)

Root relaxation: objective 5.000000e+01, 518 iterations, 0.00 seconds (0.01 work units)

    Nodes    |    Current Node    |     Objective Bounds      |     Work
 Expl Unexpl |  Obj  Depth IntInf | Incumbent    BestBd   Gap | It/Node Time

     0     0   50.00000    0   37          -   50.00000      -     -    0s
     0     0   50.00000    0  132          -   50.00000      -     -    0s
     0     0   50.00000    0   96          -   50.00000      -     -    0s
     0     0   50.00000    0   89          -   50.00000      -     -    1s
     0     0   50.00000    0   97          -   50.00000      -     -    1s
     0     0   50.00000    0   96          -   50.00000      -     -    1s
     0     0   50.00000    0   95          -   50.00000      -     -    1s
     0     2   50.00000    0   95          -   50.00000      -     -    1s
  1350   183   48.81201    9  215          -   50.00000      -  85.7    5s
* 2616    17              22      28.0000000   42.34613  51.2%   100    9s

Cutting planes:
  Learned: 4
  Gomory: 6
  Cover: 812
  Implied bound: 13
  Clique: 97
  MIR: 34
  StrongCG: 5
  GUB cover: 2
  Inf proof: 11
  Zero half: 10
  RLT: 1

Explored 2636 nodes (265980 simplex iterations) in 9.60 seconds (9.07 work units)
Thread count was 1 (of 8 available processors)

Solution count 1: 28 

Optimal solution found (tolerance 1.00e-03)
Best objective 2.800000000000e+01, best bound 2.800000000000e+01, gap 0.0000%
